60
1 0 42
2 0 23
2 1 19
3 0 47
3 1 24
3 2 46
4 0 46
4 1 53
4 2 25
4 3 60
5 0 32
5 1 7
5 2 35
5 3 36
5 4 14
6 0 14
6 1 35
6 2 17
6 3 3
6 4 60
6 5 55
7 0 43
7 1 40
7 2 56
7 3 15
7 4 48
7 5 12
7 6 18
8 0 12
8 1 23
8 2 36
8 3 23
8 4 19
8 5 8
8 6 5
8 7 37
9 0 56
9 1 51
9 2 44
9 3 22
9 4 2
9 5 12
9 6 11
9 7 16
9 8 22
10 0 5
10 1 4
10 2 15
10 3 26
10 4 49
10 5 38
10 6 11
10 7 57
10 8 52
10 9 47
11 0 11
11 1 13
11 2 60
11 3 20
11 4 13
11 5 14
11 6 52
11 7 21
11 8 55
11 9 28
11 10 29
12 0 43
12 1 6
12 2 58
12 3 11
12 4 29
12 5 48
12 6 45
12 7 53
12 8 30
12 9 53
12 10 57
12 11 49
13 0 21
13 1 11
13 2 11
13 3 4
13 4 53
13 5 7
13 6 53
13 7 35
13 8 29
13 9 1
13 10 48
13 11 22
13 12 57
14 0 30
14 1 53
14 2 8
14 3 60
14 4 2
14 5 56
14 6 46
14 7 19
14 8 9
14 9 16
14 10 8
14 11 43
14 12 58
14 13 51
15 0 3
15 1 6
15 2 21
15 3 49
15 4 45
15 5 14
15 6 23
15 7 23
15 8 57
15 9 8
15 10 11
15 11 19
15 12 19
15 13 7
15 14 32
16 0 55
16 1 7
16 2 25
16 3 19
16 4 39
16 5 7
16 6 9
16 7 57
16 8 17
16 9 15
16 10 57
16 11 43
16 12 5
16 13 31
16 14 25
16 15 54
17 0 6
17 1 60
17 2 36
17 3 45
17 4 10
17 5 12
17 6 39
17 7 33
17 8 48
17 9 57
17 10 38
17 11 3
17 12 52
17 13 39
17 14 19
17 15 18
17 16 22
18 0 28
18 1 2
18 2 41
18 3 11
18 4 50
18 5 4
18 6 28
18 7 44
18 8 34
18 9 30
18 10 15
18 11 4
18 12 5
18 13 50
18 14 15
18 15 37
18 16 44
18 17 26
19 0 11
19 1 51
19 2 13
19 3 16
19 4 11
19 5 19
19 6 41
19 7 27
19 8 1
19 9 59
19 10 49
19 11 56
19 12 42
19 13 52
19 14 2
19 15 51
19 16 56
19 17 14
19 18 45
20 0 46
20 1 19
20 2 2
20 3 6
20 4 41
20 5 4
20 6 10
20 7 53
20 8 22
20 9 45
20 10 51
20 11 21
20 12 47
20 13 14
20 14 13
20 15 1
20 16 22
20 17 51
20 18 50
20 19 10
21 0 23
21 1 31
21 2 50
21 3 3
21 4 51
21 5 23
21 6 48
21 7 17
21 8 39
21 9 3
21 10 30
21 11 11
21 12 47
21 13 34
21 14 27
21 15 24
21 16 52
21 17 46
21 18 34
21 19 41
21 20 24
22 0 35
22 1 25
22 2 28
22 3 29
22 4 25
22 5 3
22 6 24
22 7 45
22 8 44
22 9 9
22 10 19
22 11 51
22 12 26
22 13 18
22 14 58
22 15 60
22 16 39
22 17 14
22 18 52
22 19 50
22 20 6
22 21 35
23 0 44
23 1 9
23 2 4
23 3 35
23 4 34
23 5 2
23 6 38
23 7 32
23 8 20
23 9 22
23 10 46
23 11 3
23 12 37
23 13 58
23 14 29
23 15 29
23 16 7
23 17 37
23 18 58
23 19 56
23 20 18
23 21 51
23 22 32
24 0 48
24 1 4
24 2 11
24 3 52
24 4 48
24 5 2
24 6 19
24 7 40
24 8 53
24 9 40
24 10 15
24 11 52
24 12 21
24 13 43
24 14 38
24 15 3
24 16 22
24 17 16
24 18 27
24 19 38
24 20 30
24 21 42
24 22 7
24 23 54
25 0 56
25 1 17
25 2 34
25 3 2
25 4 34
25 5 59
25 6 49
25 7 55
25 8 13
25 9 1
25 10 3
25 11 54
25 12 35
25 13 6
25 14 25
25 15 12
25 16 29
25 17 20
25 18 48
25 19 31
25 20 50
25 21 18
25 22 33
25 23 54
25 24 17
26 0 48
26 1 42
26 2 10
26 3 25
26 4 17
26 5 11
26 6 15
26 7 54
26 8 49
26 9 23
26 10 15
26 11 3
26 12 18
26 13 30
26 14 22
26 15 51
26 16 10
26 17 58
26 18 29
26 19 3
26 20 50
26 21 48
26 22 29
26 23 6
26 24 34
26 25 42
27 0 37
27 1 13
27 2 35
27 3 56
27 4 58
27 5 21
27 6 38
27 7 45
27 8 26
27 9 16
27 10 7
27 11 43
27 12 35
27 13 59
27 14 50
27 15 2
27 16 4
27 17 59
27 18 40
27 19 58
27 20 45
27 21 15
27 22 53
27 23 52
27 24 36
27 25 53
27 26 47
28 0 23
28 1 60
28 2 57
28 3 5
28 4 54
28 5 7
28 6 41
28 7 1
28 8 11
28 9 21
28 10 21
28 11 10
28 12 53
28 13 59
28 14 16
28 15 29
28 16 28
28 17 55
28 18 46
28 19 1
28 20 30
28 21 32
28 22 24
28 23 26
28 24 25
28 25 30
28 26 11
28 27 58
29 0 16
29 1 58
29 2 2
29 3 48
29 4 14
29 5 21
29 6 39
29 7 55
29 8 26
29 9 47
29 10 21
29 11 40
29 12 48
29 13 51
29 14 45
29 15 58
29 16 48
29 17 17
29 18 14
29 19 36
29 20 16
29 21 33
29 22 39
29 23 5
29 24 46
29 25 43
29 26 39
29 27 14
29 28 8
30 0 56
30 1 30
30 2 7
30 3 8
30 4 24
30 5 29
30 6 23
30 7 25
30 8 38
30 9 11
30 10 47
30 11 13
30 12 33
30 13 7
30 14 34
30 15 20
30 16 26
30 17 32
30 18 10
30 19 40
30 20 5
30 21 34
30 22 5
30 23 57
30 24 31
30 25 53
30 26 9
30 27 40
30 28 3
30 29 26
31 0 23
31 1 22
31 2 43
31 3 4
31 4 16
31 5 44
31 6 12
31 7 13
31 8 4
31 9 60
31 10 57
31 11 44
31 12 33
31 13 57
31 14 59
31 15 36
31 16 13
31 17 14
31 18 34
31 19 9
31 20 52
31 21 53
31 22 50
31 23 5
31 24 17
31 25 16
31 26 60
31 27 21
31 28 7
31 29 47
31 30 49
32 0 33
32 1 21
32 2 18
32 3 14
32 4 39
32 5 59
32 6 35
32 7 34
32 8 7
32 9 52
32 10 54
32 11 39
32 12 38
32 13 34
32 14 6
32 15 39
32 16 3
32 17 53
32 18 49
32 19 40
32 20 25
32 21 31
32 22 4
32 23 6
32 24 58
32 25 44
32 26 46
32 27 42
32 28 32
32 29 9
32 30 26
32 31 29
33 0 54
33 1 6
33 2 50
33 3 1
33 4 50
33 5 58
33 6 24
33 7 3
33 8 53
33 9 40
33 10 49
33 11 53
33 12 14
33 13 6
33 14 46
33 15 33
33 16 17
33 17 5
33 18 8
33 19 29
33 20 27
33 21 21
33 22 57
33 23 60
33 24 39
33 25 31
33 26 46
33 27 17
33 28 26
33 29 2
33 30 28
33 31 9
33 32 25
34 0 33
34 1 38
34 2 10
34 3 58
34 4 22
34 5 56
34 6 54
34 7 56
34 8 39
34 9 6
34 10 56
34 11 54
34 12 48
34 13 34
34 14 29
34 15 30
34 16 58
34 17 54
34 18 31
34 19 29
34 20 48
34 21 18
34 22 33
34 23 44
34 24 44
34 25 10
34 26 45
34 27 25
34 28 33
34 29 15
34 30 57
34 31 51
34 32 56
34 33 57
35 0 43
35 1 57
35 2 12
35 3 54
35 4 31
35 5 16
35 6 40
35 7 41
35 8 38
35 9 47
35 10 59
35 11 35
35 12 30
35 13 17
35 14 44
35 15 21
35 16 28
35 17 53
35 18 51
35 19 46
35 20 6
35 21 54
35 22 51
35 23 24
35 24 52
35 25 12
35 26 57
35 27 32
35 28 27
35 29 47
35 30 14
35 31 30
35 32 2
35 33 18
35 34 49
36 0 52
36 1 48
36 2 28
36 3 40
36 4 1
36 5 47
36 6 50
36 7 11
36 8 14
36 9 17
36 10 26
36 11 59
36 12 13
36 13 31
36 14 59
36 15 30
36 16 51
36 17 44
36 18 47
36 19 9
36 20 23
36 21 35
36 22 41
36 23 21
36 24 24
36 25 2
36 26 32
36 27 34
36 28 30
36 29 18
36 30 55
36 31 13
36 32 15
36 33 37
36 34 29
36 35 5
37 0 56
37 1 32
37 2 40
37 3 24
37 4 11
37 5 34
37 6 58
37 7 13
37 8 37
37 9 53
37 10 2
37 11 10
37 12 47
37 13 42
37 14 57
37 15 6
37 16 20
37 17 22
37 18 56
37 19 4
37 20 6
37 21 22
37 22 58
37 23 37
37 24 25
37 25 51
37 26 6
37 27 34
37 28 5
37 29 11
37 30 39
37 31 16
37 32 31
37 33 51
37 34 29
37 35 40
37 36 18
38 0 29
38 1 55
38 2 8
38 3 54
38 4 9
38 5 3
38 6 4
38 7 26
38 8 46
38 9 41
38 10 46
38 11 45
38 12 43
38 13 60
38 14 8
38 15 3
38 16 44
38 17 31
38 18 2
38 19 60
38 20 35
38 21 21
38 22 28
38 23 2
38 24 28
38 25 32
38 26 53
38 27 8
38 28 50
38 29 57
38 30 19
38 31 29
38 32 7
38 33 16
38 34 10
38 35 38
38 36 38
38 37 47
39 0 35
39 1 13
39 2 42
39 3 3
39 4 15
39 5 17
39 6 30
39 7 53
39 8 35
39 9 38
39 10 31
39 11 2
39 12 49
39 13 5
39 14 24
39 15 22
39 16 29
39 17 14
39 18 36
39 19 49
39 20 19
39 21 14
39 22 12
39 23 6
39 24 31
39 25 37
39 26 43
39 27 57
39 28 46
39 29 28
39 30 55
39 31 36
39 32 47
39 33 60
39 34 36
39 35 39
39 36 4
39 37 38
39 38 22
40 0 26
40 1 59
40 2 12
40 3 32
40 4 39
40 5 43
40 6 36
40 7 36
40 8 55
40 9 29
40 10 17
40 11 15
40 12 18
40 13 3
40 14 15
40 15 38
40 16 20
40 17 31
40 18 29
40 19 16
40 20 37
40 21 52
40 22 2
40 23 6
40 24 23
40 25 45
40 26 1
40 27 20
40 28 37
40 29 34
40 30 30
40 31 9
40 32 14
40 33 45
40 34 56
40 35 28
40 36 48
40 37 43
40 38 23
40 39 14
41 0 43
41 1 6
41 2 1
41 3 7
41 4 42
41 5 8
41 6 35
41 7 14
41 8 10
41 9 15
41 10 38
41 11 48
41 12 37
41 13 17
41 14 52
41 15 20
41 16 26
41 17 56
41 18 45
41 19 58
41 20 31
41 21 18
41 22 27
41 23 18
41 24 32
41 25 35
41 26 46
41 27 18
41 28 1
41 29 21
41 30 8
41 31 38
41 32 23
41 33 4
41 34 32
41 35 13
41 36 37
41 37 32
41 38 27
41 39 55
41 40 16
42 0 34
42 1 20
42 2 49
42 3 56
42 4 8
42 5 20
42 6 9
42 7 24
42 8 43
42 9 51
42 10 8
42 11 13
42 12 30
42 13 50
42 14 17
42 15 8
42 16 51
42 17 14
42 18 42
42 19 54
42 20 8
42 21 21
42 22 39
42 23 19
42 24 39
42 25 3
42 26 23
42 27 25
42 28 32
42 29 49
42 30 47
42 31 19
42 32 43
42 33 26
42 34 44
42 35 60
42 36 13
42 37 29
42 38 55
42 39 9
42 40 38
42 41 6
43 0 28
43 1 48
43 2 24
43 3 41
43 4 57
43 5 18
43 6 4
43 7 29
43 8 24
43 9 59
43 10 60
43 11 9
43 12 14
43 13 36
43 14 5
43 15 48
43 16 38
43 17 9
43 18 13
43 19 16
43 20 34
43 21 54
43 22 46
43 23 17
43 24 15
43 25 42
43 26 26
43 27 60
43 28 12
43 29 44
43 30 58
43 31 10
43 32 58
43 33 31
43 34 44
43 35 38
43 36 2
43 37 40
43 38 12
43 39 5
43 40 39
43 41 42
43 42 41
44 0 14
44 1 42
44 2 56
44 3 58
44 4 59
44 5 37
44 6 28
44 7 47
44 8 59
44 9 1
44 10 27
44 11 60
44 12 40
44 13 44
44 14 12
44 15 12
44 16 7
44 17 12
44 18 12
44 19 58
44 20 43
44 21 28
44 22 39
44 23 3
44 24 50
44 25 24
44 26 11
44 27 10
44 28 58
44 29 36
44 30 12
44 31 6
44 32 48
44 33 13
44 34 31
44 35 38
44 36 37
44 37 56
44 38 30
44 39 60
44 40 32
44 41 20
44 42 6
44 43 17
45 0 41
45 1 43
45 2 55
45 3 49
45 4 27
45 5 8
45 6 36
45 7 24
45 8 8
45 9 60
45 10 24
45 11 11
45 12 50
45 13 38
45 14 57
45 15 9
45 16 23
45 17 41
45 18 21
45 19 50
45 20 26
45 21 11
45 22 56
45 23 36
45 24 29
45 25 37
45 26 47
45 27 38
45 28 55
45 29 31
45 30 39
45 31 31
45 32 39
45 33 11
45 34 21
45 35 56
45 36 60
45 37 41
45 38 51
45 39 53
45 40 32
45 41 12
45 42 50
45 43 38
45 44 30
46 0 20
46 1 8
46 2 7
46 3 42
46 4 7
46 5 35
46 6 26
46 7 60
46 8 38
46 9 8
46 10 56
46 11 59
46 12 31
46 13 9
46 14 45
46 15 22
46 16 50
46 17 25
46 18 1
46 19 1
46 20 6
46 21 4
46 22 54
46 23 59
46 24 22
46 25 37
46 26 19
46 27 38
46 28 44
46 29 49
46 30 59
46 31 55
46 32 30
46 33 57
46 34 7
46 35 26
46 36 9
46 37 48
46 38 55
46 39 33
46 40 40
46 41 14
46 42 42
46 43 7
46 44 43
46 45 40
47 0 17
47 1 17
47 2 12
47 3 12
47 4 57
47 5 17
47 6 41
47 7 35
47 8 14
47 9 48
47 10 56
47 11 14
47 12 16
47 13 41
47 14 40
47 15 49
47 16 17
47 17 18
47 18 3
47 19 30
47 20 44
47 21 2
47 22 38
47 23 18
47 24 8
47 25 16
47 26 48
47 27 33
47 28 22
47 29 22
47 30 55
47 31 29
47 32 18
47 33 10
47 34 35
47 35 9
47 36 40
47 37 53
47 38 57
47 39 13
47 40 58
47 41 52
47 42 49
47 43 38
47 44 25
47 45 20
47 46 58
48 0 56
48 1 29
48 2 55
48 3 7
48 4 42
48 5 30
48 6 53
48 7 18
48 8 42
48 9 7
48 10 19
48 11 28
48 12 22
48 13 9
48 14 33
48 15 51
48 16 48
48 17 27
48 18 30
48 19 25
48 20 38
48 21 15
48 22 6
48 23 1
48 24 4
48 25 3
48 26 36
48 27 28
48 28 15
48 29 56
48 30 34
48 31 45
48 32 40
48 33 51
48 34 55
48 35 32
48 36 9
48 37 18
48 38 9
48 39 15
48 40 48
48 41 38
48 42 49
48 43 18
48 44 57
48 45 30
48 46 46
48 47 42
49 0 46
49 1 26
49 2 40
49 3 59
49 4 15
49 5 44
49 6 58
49 7 32
49 8 54
49 9 50
49 10 16
49 11 52
49 12 55
49 13 51
49 14 37
49 15 50
49 16 60
49 17 17
49 18 23
49 19 9
49 20 6
49 21 46
49 22 45
49 23 20
49 24 32
49 25 27
49 26 42
49 27 39
49 28 24
49 29 26
49 30 20
49 31 30
49 32 19
49 33 18
49 34 50
49 35 52
49 36 38
49 37 40
49 38 13
49 39 8
49 40 60
49 41 22
49 42 55
49 43 50
49 44 43
49 45 33
49 46 49
49 47 4
49 48 7
50 0 52
50 1 5
50 2 20
50 3 20
50 4 42
50 5 9
50 6 32
50 7 50
50 8 48
50 9 35
50 10 56
50 11 36
50 12 2
50 13 39
50 14 32
50 15 10
50 16 56
50 17 54
50 18 18
50 19 25
50 20 28
50 21 6
50 22 47
50 23 11
50 24 56
50 25 17
50 26 28
50 27 1
50 28 8
50 29 35
50 30 46
50 31 28
50 32 10
50 33 29
50 34 20
50 35 4
50 36 27
50 37 24
50 38 24
50 39 32
50 40 47
50 41 48
50 42 3
50 43 3
50 44 44
50 45 5
50 46 44
50 47 40
50 48 28
50 49 21
51 0 37
51 1 7
51 2 46
51 3 24
51 4 13
51 5 35
51 6 20
51 7 42
51 8 34
51 9 14
51 10 46
51 11 16
51 12 7
51 13 33
51 14 40
51 15 34
51 16 41
51 17 51
51 18 19
51 19 58
51 20 28
51 21 22
51 22 47
51 23 8
51 24 47
51 25 51
51 26 51
51 27 58
51 28 7
51 29 45
51 30 35
51 31 11
51 32 40
51 33 3
51 34 56
51 35 14
51 36 20
51 37 40
51 38 20
51 39 57
51 40 1
51 41 50
51 42 12
51 43 6
51 44 33
51 45 54
51 46 11
51 47 52
51 48 36
51 49 28
51 50 2
52 0 36
52 1 36
52 2 43
52 3 51
52 4 54
52 5 14
52 6 34
52 7 52
52 8 23
52 9 9
52 10 47
52 11 4
52 12 52
52 13 9
52 14 14
52 15 22
52 16 1
52 17 37
52 18 2
52 19 7
52 20 17
52 21 14
52 22 13
52 23 6
52 24 4
52 25 11
52 26 57
52 27 15
52 28 14
52 29 25
52 30 52
52 31 5
52 32 23
52 33 29
52 34 40
52 35 7
52 36 43
52 37 12
52 38 8
52 39 58
52 40 10
52 41 14
52 42 30
52 43 5
52 44 10
52 45 8
52 46 16
52 47 59
52 48 23
52 49 31
52 50 27
52 51 39
53 0 13
53 1 28
53 2 36
53 3 26
53 4 48
53 5 15
53 6 60
53 7 33
53 8 48
53 9 59
53 10 5
53 11 8
53 12 27
53 13 58
53 14 49
53 15 12
53 16 30
53 17 34
53 18 48
53 19 21
53 20 47
53 21 58
53 22 55
53 23 41
53 24 4
53 25 19
53 26 18
53 27 35
53 28 2
53 29 54
53 30 37
53 31 4
53 32 30
53 33 22
53 34 58
53 35 58
53 36 32
53 37 24
53 38 1
53 39 20
53 40 56
53 41 1
53 42 5
53 43 28
53 44 4
53 45 28
53 46 16
53 47 39
53 48 16
53 49 45
53 50 58
53 51 37
53 52 12
54 0 43
54 1 15
54 2 9
54 3 45
54 4 35
54 5 52
54 6 15
54 7 43
54 8 22
54 9 11
54 10 7
54 11 59
54 12 15
54 13 54
54 14 35
54 15 59
54 16 16
54 17 39
54 18 47
54 19 3
54 20 37
54 21 42
54 22 20
54 23 25
54 24 27
54 25 25
54 26 16
54 27 12
54 28 6
54 29 10
54 30 18
54 31 50
54 32 55
54 33 46
54 34 24
54 35 24
54 36 20
54 37 51
54 38 48
54 39 4
54 40 47
54 41 36
54 42 35
54 43 33
54 44 33
54 45 35
54 46 44
54 47 16
54 48 41
54 49 3
54 50 25
54 51 37
54 52 34
54 53 36
55 0 27
55 1 34
55 2 45
55 3 59
55 4 36
55 5 24
55 6 18
55 7 56
55 8 8
55 9 28
55 10 30
55 11 45
55 12 27
55 13 11
55 14 51
55 15 22
55 16 9
55 17 32
55 18 35
55 19 1
55 20 36
55 21 2
55 22 17
55 23 37
55 24 50
55 25 45
55 26 18
55 27 51
55 28 33
55 29 58
55 30 48
55 31 4
55 32 18
55 33 20
55 34 60
55 35 50
55 36 19
55 37 52
55 38 43
55 39 42
55 40 33
55 41 6
55 42 20
55 43 24
55 44 44
55 45 8
55 46 47
55 47 40
55 48 43
55 49 18
55 50 13
55 51 15
55 52 10
55 53 5
55 54 21
56 0 60
56 1 40
56 2 4
56 3 48
56 4 1
56 5 40
56 6 17
56 7 48
56 8 1
56 9 36
56 10 15
56 11 5
56 12 54
56 13 33
56 14 23
56 15 55
56 16 43
56 17 2
56 18 55
56 19 35
56 20 40
56 21 37
56 22 60
56 23 33
56 24 1
56 25 52
56 26 12
56 27 34
56 28 37
56 29 30
56 30 7
56 31 1
56 32 59
56 33 47
56 34 56
56 35 24
56 36 45
56 37 48
56 38 27
56 39 58
56 40 51
56 41 41
56 42 25
56 43 28
56 44 7
56 45 27
56 46 28
56 47 60
56 48 59
56 49 34
56 50 7
56 51 7
56 52 17
56 53 43
56 54 18
56 55 41
57 0 40
57 1 17
57 2 35
57 3 19
57 4 53
57 5 26
57 6 10
57 7 19
57 8 1
57 9 56
57 10 2
57 11 17
57 12 29
57 13 59
57 14 58
57 15 4
57 16 22
57 17 58
57 18 24
57 19 40
57 20 20
57 21 25
57 22 12
57 23 60
57 24 5
57 25 60
57 26 55
57 27 59
57 28 33
57 29 18
57 30 2
57 31 17
57 32 44
57 33 25
57 34 14
57 35 25
57 36 11
57 37 51
57 38 53
57 39 25
57 40 35
57 41 25
57 42 3
57 43 55
57 44 40
57 45 39
57 46 55
57 47 39
57 48 42
57 49 14
57 50 12
57 51 38
57 52 9
57 53 38
57 54 12
57 55 18
57 56 12
58 0 30
58 1 24
58 2 43
58 3 18
58 4 48
58 5 47
58 6 23
58 7 3
58 8 47
58 9 20
58 10 26
58 11 51
58 12 6
58 13 19
58 14 2
58 15 12
58 16 36
58 17 27
58 18 32
58 19 44
58 20 1
58 21 46
58 22 23
58 23 10
58 24 10
58 25 7
58 26 10
58 27 55
58 28 26
58 29 29
58 30 7
58 31 53
58 32 53
58 33 24
58 34 50
58 35 48
58 36 5
58 37 26
58 38 26
58 39 10
58 40 33
58 41 16
58 42 57
58 43 25
58 44 19
58 45 56
58 46 55
58 47 17
58 48 10
58 49 27
58 50 30
58 51 1
58 52 30
58 53 22
58 54 33
58 55 13
58 56 41
58 57 39
59 0 17
59 1 33
59 2 41
59 3 24
59 4 45
59 5 6
59 6 8
59 7 28
59 8 10
59 9 41
59 10 58
59 11 14
59 12 38
59 13 11
59 14 45
59 15 36
59 16 2
59 17 29
59 18 57
59 19 28
59 20 6
59 21 1
59 22 40
59 23 52
59 24 45
59 25 38
59 26 7
59 27 49
59 28 22
59 29 21
59 30 22
59 31 24
59 32 40
59 33 32
59 34 14
59 35 32
59 36 8
59 37 3
59 38 41
59 39 44
59 40 19
59 41 48
59 42 32
59 43 37
59 44 20
59 45 40
59 46 51
59 47 60
59 48 37
59 49 35
59 50 5
59 51 48
59 52 29
59 53 20
59 54 51
59 55 8
59 56 9
59 57 24
59 58 55
